instances/shortest_path/discrete/shortest_path_3_18.kp
61578
82

[2.3442382984687113 6.536466554940405 7.433328693748451 8.258350883442185 9.429562181346546 3.3773755035240196]

[56 48 82 23 28 50]
